
Gurobi 11.0.2 (linux64) logging started Tue 03 Dec 2024 09:04:55 AM CET

Set parameter LogFile to value "./res/knapPI_11_50_1000/knapPI_11_50_1000_36/grb_dom.log"
Set parameter Presolve to value 0
Set parameter Aggregate to value 0
Set parameter Heuristics to value 0
Set parameter LPWarmStart to value 0
Set parameter NLPHeur to value 0
Set parameter PreDepRow to value 0
Set parameter PreDual to value 0
Set parameter RINS to value 0
Set parameter Symmetry to value 0
Set parameter NodeLimit to value 1
Set parameter Threads to value 1

Gurobi 11.0.2 (linux64) logging started Tue 03 Dec 2024 09:04:58 AM CET

Set parameter LogFile to value "./res/knapPI_11_50_1000/knapPI_11_50_1000_36/grb_dom.log"
Set parameter NLPHeur to value 0
Set parameter LPWarmStart to value 0
Set parameter PreDepRow to value 0
Set parameter Symmetry to value 0
Set parameter Presolve to value 0
Gurobi Optimizer version 11.0.2 build v11.0.2rc0 (linux64 - "Pop!_OS 20.04 LTS")

CPU model: Intel(R) Core(TM) i7-8650U CPU @ 1.90GHz, instruction set [SSE2|AVX|AVX2]
Thread count: 4 physical cores, 4 logical processors, using up to 1 threads

Optimize a model with 22472 rows, 50 columns and 471914 nonzeros
Model fingerprint: 0x192f2529
Variable types: 0 continuous, 50 integer (50 binary)
Coefficient statistics:
  Matrix range     [1e+00, 9e+02]
  Objective range  [2e+01, 8e+02]
  Bounds range     [0e+00, 0e+00]
  RHS range        [7e+03, 7e+03]
Variable types: 0 continuous, 50 integer (50 binary)

Root relaxation: objective 1.267993e+04, 5 iterations, 0.11 seconds (0.01 work units)

    Nodes    |    Current Node    |     Objective Bounds      |     Work
 Expl Unexpl |  Obj  Depth IntInf | Incumbent    BestBd   Gap | It/Node Time

     0     0 12679.9326    0    1          - 12679.9326      -     -    0s
     0     0 12679.9326    0    1          - 12679.9326      -     -    0s
*    0     0               0    12674.000000 12674.0000  0.00%     -    0s

Cutting planes:
  MIR: 1
  RLT: 1

Explored 1 nodes (8 simplex iterations) in 0.86 seconds (0.28 work units)
Thread count was 1 (of 4 available processors)

Solution count 1: 12674 

Optimal solution found (tolerance 1.00e-04)
Best objective 1.267400000000e+04, best bound 1.267400000000e+04, gap 0.0000%

User-callback calls 253, time in user-callback 0.00 sec
opt = true
obj = 12674.0
nb_dom_cuts = 22471
solved_time = 0.8632
opt_val = 12674.0
